c 27_3_checker_5cl.cnf
c
c field = 27
c formula set type = 3_checker_5cl
c
p cnf 5 12
50 
54 
56 
-59 
-48 
51 
55 
57 
-58 
-49 
54 
56 
58 
-51 
-48 
55 
57 
59 
-50 
-49 
22 
82 
112 
-143 
-172 
23 
83 
113 
-142 
-173 
82 
112 
142 
-23 
-172 
83 
113 
143 
-22 
-173 
24 
80 
108 
-137 
-164 
25 
81 
109 
-136 
-165 
80 
108 
136 
-25 
-164 
81 
109 
137 
-24 
-165 
